C60 | isolated, centered, L=14.0 Å, vac
   1.00000000000000     
    14.0000000000000000    0.0000000000000000    0.0000000000000000
     0.0000000000000000   14.0000000000000000    0.0000000000000000
     0.0000000000000000    0.0000000000000000   14.0000000000000000
  C             
    60
Direct
  0.6488462972937131  0.4037557200951486  0.3182299304809907
  0.5997594177651491  0.3190064506634826  0.3525791409024506
  0.5812148674309333  0.4597157598218161  0.2628716886024595
  0.5018277403134691  0.3225837374299484  0.3184068965896735
  0.4903718118420659  0.4095635719949405  0.2629707255071410
  0.7159645969229929  0.4496274676670319  0.3763506145910862
  0.6195657696964944  0.2833226671661349  0.4437797920838792
  0.5831949157205459  0.5594959087756963  0.2677357911641034
  0.4273551719919423  0.2903166283565271  0.3766971759048346
  0.4048999419862239  0.4610934364799700  0.2679105170958331
  0.7365099763579837  0.4125404525874917  0.4710698162430048
  0.6892591179612106  0.3309298822193583  0.5041514262566267
  0.7179823466031060  0.5532710021846047  0.3814138977503671
  0.6528383752284962  0.6071244478664956  0.3281443001197002
  0.5422222180038456  0.2497880565269193  0.5043197970985457
  0.4479323527965307  0.2532150879840286  0.4714125956450664
  0.4944262591960323  0.6130054665445480  0.2728071918337828
  0.4069478069638027  0.5647226926874611  0.2728841603731627
  0.3386070335151330  0.3438652352210604  0.3818233527966426
  0.3275887656900260  0.4276263451689831  0.3284755884655191
  0.7512776846099044  0.4932677744922352  0.5346222781757188
  0.7398061950855231  0.5802501701216314  0.4792110546214276
  0.6549430879867518  0.3268824001884316  0.6020146854236861
  0.5640758449080756  0.2767173026169580  0.6021324144994267
  0.6071071830032624  0.6900863330569108  0.3705307830032682
  0.5092090071421944  0.6937149540664206  0.3363305446699011
  0.3718832260172185  0.2838236896479712  0.5350549140747546
  0.3042928310388185  0.3398004670973769  0.4796769655006740
  0.3308722110540982  0.5952971650031914  0.3365167539371745
  0.2818232661997621  0.5105395057354695  0.3708802120856851
  0.7182230682153918  0.4893765899933847  0.6288319963768876
  0.6691473847263459  0.4046232676194146  0.6631557255895114
  0.6957356407024685  0.6600952430343363  0.5200508360662440
  0.6281531455651883  0.7160763956268690  0.4646769927509146
  0.4908314249683444  0.3061750795846353  0.6633997285353894
  0.3929311716144892  0.3098213755989120  0.6291942179869818
  0.4359605038957657  0.7231722495977935  0.3975841646610340
  0.3450901185794807  0.6730261140667054  0.3976804841968078
  0.2602161268092332  0.4196493626018094  0.5205047440179545
  0.2487583198590307  0.5066355572581014  0.4650817463369655
  0.6724502965521095  0.5722973739744284  0.6712423303558888
  0.6614281590200375  0.6560613422525977  0.6179041550255274
  0.5930648467399268  0.4352047407353662  0.7267644156914480
  0.5056017419151946  0.3869122058587482  0.7268807344415218
  0.5520948076180937  0.7466950970596007  0.5283031460319672
  0.4578063784976114  0.7501196963488559  0.4953943328839276
  0.3471939339537844  0.3927860176706923  0.6715692529310353
  0.2820603261471511  0.4466512261450388  0.6182936546973288
  0.3107598113767817  0.6689921119371934  0.4955382917231615
  0.2635056406631219  0.5873786939234983  0.5286145843172398
  0.5951214977217305  0.5388316953034474  0.7317759874109350
  0.5726687422199476  0.7096009639878598  0.6230101040669604
  0.4168392880230139  0.4404426384575340  0.7319502453433105
  0.3804443561939759  0.7166107702135244  0.5559173523607022
  0.2840724510194188  0.5502990777914248  0.6233325899175659
  0.5096472331258428  0.5903663676635814  0.7367162583349520
  0.4981845317190772  0.6773466789052595  0.6812868883861091
  0.4188041472199548  0.5402196756056376  0.7367959704030262
  0.4002574551389492  0.6809264650643757  0.6471017159951004
  0.3511805622732424  0.5961818604511332  0.6814382002670233
 
  0.00000000E+00  0.00000000E+00  0.00000000E+00
  0.00000000E+00  0.00000000E+00  0.00000000E+00
  0.00000000E+00  0.00000000E+00  0.00000000E+00
  0.00000000E+00  0.00000000E+00  0.00000000E+00
  0.00000000E+00  0.00000000E+00  0.00000000E+00
  0.00000000E+00  0.00000000E+00  0.00000000E+00
  0.00000000E+00  0.00000000E+00  0.00000000E+00
  0.00000000E+00  0.00000000E+00  0.00000000E+00
  0.00000000E+00  0.00000000E+00  0.00000000E+00
  0.00000000E+00  0.00000000E+00  0.00000000E+00
  0.00000000E+00  0.00000000E+00  0.00000000E+00
  0.00000000E+00  0.00000000E+00  0.00000000E+00
  0.00000000E+00  0.00000000E+00  0.00000000E+00
  0.00000000E+00  0.00000000E+00  0.00000000E+00
  0.00000000E+00  0.00000000E+00  0.00000000E+00
  0.00000000E+00  0.00000000E+00  0.00000000E+00
  0.00000000E+00  0.00000000E+00  0.00000000E+00
  0.00000000E+00  0.00000000E+00  0.00000000E+00
  0.00000000E+00  0.00000000E+00  0.00000000E+00
  0.00000000E+00  0.00000000E+00  0.00000000E+00
  0.00000000E+00  0.00000000E+00  0.00000000E+00
  0.00000000E+00  0.00000000E+00  0.00000000E+00
  0.00000000E+00  0.00000000E+00  0.00000000E+00
  0.00000000E+00  0.00000000E+00  0.00000000E+00
  0.00000000E+00  0.00000000E+00  0.00000000E+00
  0.00000000E+00  0.00000000E+00  0.00000000E+00
  0.00000000E+00  0.00000000E+00  0.00000000E+00
  0.00000000E+00  0.00000000E+00  0.00000000E+00
  0.00000000E+00  0.00000000E+00  0.00000000E+00
  0.00000000E+00  0.00000000E+00  0.00000000E+00
  0.00000000E+00  0.00000000E+00  0.00000000E+00
  0.00000000E+00  0.00000000E+00  0.00000000E+00
  0.00000000E+00  0.00000000E+00  0.00000000E+00
  0.00000000E+00  0.00000000E+00  0.00000000E+00
  0.00000000E+00  0.00000000E+00  0.00000000E+00
  0.00000000E+00  0.00000000E+00  0.00000000E+00
  0.00000000E+00  0.00000000E+00  0.00000000E+00
  0.00000000E+00  0.00000000E+00  0.00000000E+00
  0.00000000E+00  0.00000000E+00  0.00000000E+00
  0.00000000E+00  0.00000000E+00  0.00000000E+00
  0.00000000E+00  0.00000000E+00  0.00000000E+00
  0.00000000E+00  0.00000000E+00  0.00000000E+00
  0.00000000E+00  0.00000000E+00  0.00000000E+00
  0.00000000E+00  0.00000000E+00  0.00000000E+00
  0.00000000E+00  0.00000000E+00  0.00000000E+00
  0.00000000E+00  0.00000000E+00  0.00000000E+00
  0.00000000E+00  0.00000000E+00  0.00000000E+00
  0.00000000E+00  0.00000000E+00  0.00000000E+00
  0.00000000E+00  0.00000000E+00  0.00000000E+00
  0.00000000E+00  0.00000000E+00  0.00000000E+00
  0.00000000E+00  0.00000000E+00  0.00000000E+00
  0.00000000E+00  0.00000000E+00  0.00000000E+00
  0.00000000E+00  0.00000000E+00  0.00000000E+00
  0.00000000E+00  0.00000000E+00  0.00000000E+00
  0.00000000E+00  0.00000000E+00  0.00000000E+00
  0.00000000E+00  0.00000000E+00  0.00000000E+00
  0.00000000E+00  0.00000000E+00  0.00000000E+00
  0.00000000E+00  0.00000000E+00  0.00000000E+00
  0.00000000E+00  0.00000000E+00  0.00000000E+00
  0.00000000E+00  0.00000000E+00  0.00000000E+00
